1006,457
672,378
681,-74
470,115
822,600
655,419
761,446
910,91
721,486
589,121
452,721
148,490
512,283
803,166
548,338
326,350
560,318
639,140
617,207
1108,545
532,700
207,481
629,334
436,-75
654,353
463,248
893,618
141,406
523,624
727,548
311,286
935,660
552,805
